Mack/Bortfeldt(2008)
Bin-Packing-Problem
BP-RG/SBSBPP/SSSCSP
Testcase-ID	5
Problem-ID	39
no_item_types	10
no_items	2080
CONTAINER_DATA (l,w,h)	459	105	93
ITEMS_DATA:
Type	x	y	z	no_items
1	90	70	63	191
2	80	76	54	206
3	94	85	39	199
4	94	61	54	198
5	84	78	28	218
6	69	50	45	190
7	70	57	37	214
8	72	53	37	223
9	92	44	29	225
10	89	43	27	216
